15 40
25
3 11 0 17
3 13 9 27
9 2 6 0
2 7 13 2
3 9 6 27
3 7 12 33
2 11 4 6
2 13 6 8
4 11 0 6
13 4 0 2
3 5 10 22
2 11 13 22
2 2 6 6
3 11 3 17
2 3 4 28
5 4 4 36
4 6 6 21
2 12 8 9
1 2 12 31
5 3 8 6
5 13 10 9
4 12 0 28
1 4 12 27
2 5 4 31
6 2 0 0
